problems/csplib-prob015/SchursLemma-models/noch/O2/lingeling/model_1_1-3-13-solution000001.eprime-solution
language ESSENCE' 1.0

letting boxes_PartitionAsSet_ExplicitR2_Occurrence be
        [[false, false, false, false, false, true, true, true, true, true, true, false, false; int(1..13)],
         [false, false, true, false, true, false, false, false, false, false, false, true, true; int(1..13)],
         [true, true, false, true, false, false, false, false, false, false, false, false,
          false; int(1..13)]; int(1..3)]
