problems/csplib-prob015/SchursLemma-models/noch/O2/lingeling/model_1_1-3-13-solution000001.solution
language Essence 1.3

letting boxes be partition({1, 2, 4}, {3, 5, 12, 13}, {6, 7, 8, 9, 10, 11})
